c graph colorability of graph:
c random_regular_graph(5, 98).
c
c Generated with `cnfgen`
c (C) 2012-2016 Massimo Lauria <lauria.massimo@gmail.com>
c https://massimolauria.github.io/cnfgen
c
p cnf 294 1127
1 2 3 0
-1 -2 0
-1 -3 0
-2 -3 0
4 5 6 0
-4 -5 0
-4 -6 0
-5 -6 0
7 8 9 0
-7 -8 0
-7 -9 0
-8 -9 0
10 11 12 0
-10 -11 0
-10 -12 0
-11 -12 0
13 14 15 0
-13 -14 0
-13 -15 0
-14 -15 0
16 17 18 0
-16 -17 0
-16 -18 0
-17 -18 0
19 20 21 0
-19 -20 0
-19 -21 0
-20 -21 0
22 23 24 0
-22 -23 0
-22 -24 0
-23 -24 0
25 26 27 0
-25 -26 0
-25 -27 0
-26 -27 0
28 29 30 0
-28 -29 0
-28 -30 0
-29 -30 0
31 32 33 0
-31 -32 0
-31 -33 0
-32 -33 0
34 35 36 0
-34 -35 0
-34 -36 0
-35 -36 0
37 38 39 0
-37 -38 0
-37 -39 0
-38 -39 0
40 41 42 0
-40 -41 0
-40 -42 0
-41 -42 0
43 44 45 0
-43 -44 0
-43 -45 0
-44 -45 0
46 47 48 0
-46 -47 0
-46 -48 0
-47 -48 0
49 50 51 0
-49 -50 0
-49 -51 0
-50 -51 0
52 53 54 0
-52 -53 0
-52 -54 0
-53 -54 0
55 56 57 0
-55 -56 0
-55 -57 0
-56 -57 0
58 59 60 0
-58 -59 0
-58 -60 0
-59 -60 0
61 62 63 0
-61 -62 0
-61 -63 0
-62 -63 0
64 65 66 0
-64 -65 0
-64 -66 0
-65 -66 0
67 68 69 0
-67 -68 0
-67 -69 0
-68 -69 0
70 71 72 0
-70 -71 0
-70 -72 0
-71 -72 0
73 74 75 0
-73 -74 0
-73 -75 0
-74 -75 0
76 77 78 0
-76 -77 0
-76 -78 0
-77 -78 0
79 80 81 0
-79 -80 0
-79 -81 0
-80 -81 0
82 83 84 0
-82 -83 0
-82 -84 0
-83 -84 0
85 86 87 0
-85 -86 0
-85 -87 0
-86 -87 0
88 89 90 0
-88 -89 0
-88 -90 0
-89 -90 0
91 92 93 0
-91 -92 0
-91 -93 0
-92 -93 0
94 95 96 0
-94 -95 0
-94 -96 0
-95 -96 0
97 98 99 0
-97 -98 0
-97 -99 0
-98 -99 0
100 101 102 0
-100 -101 0
-100 -102 0
-101 -102 0
103 104 105 0
-103 -104 0
-103 -105 0
-104 -105 0
106 107 108 0
-106 -107 0
-106 -108 0
-107 -108 0
109 110 111 0
-109 -110 0
-109 -111 0
-110 -111 0
112 113 114 0
-112 -113 0
-112 -114 0
-113 -114 0
115 116 117 0
-115 -116 0
-115 -117 0
-116 -117 0
118 119 120 0
-118 -119 0
-118 -120 0
-119 -120 0
121 122 123 0
-121 -122 0
-121 -123 0
-122 -123 0
124 125 126 0
-124 -125 0
-124 -126 0
-125 -126 0
127 128 129 0
-127 -128 0
-127 -129 0
-128 -129 0
130 131 132 0
-130 -131 0
-130 -132 0
-131 -132 0
133 134 135 0
-133 -134 0
-133 -135 0
-134 -135 0
136 137 138 0
-136 -137 0
-136 -138 0
-137 -138 0
139 140 141 0
-139 -140 0
-139 -141 0
-140 -141 0
142 143 144 0
-142 -143 0
-142 -144 0
-143 -144 0
145 146 147 0
-145 -146 0
-145 -147 0
-146 -147 0
148 149 150 0
-148 -149 0
-148 -150 0
-149 -150 0
151 152 153 0
-151 -152 0
-151 -153 0
-152 -153 0
154 155 156 0
-154 -155 0
-154 -156 0
-155 -156 0
157 158 159 0
-157 -158 0
-157 -159 0
-158 -159 0
160 161 162 0
-160 -161 0
-160 -162 0
-161 -162 0
163 164 165 0
-163 -164 0
-163 -165 0
-164 -165 0
166 167 168 0
-166 -167 0
-166 -168 0
-167 -168 0
169 170 171 0
-169 -170 0
-169 -171 0
-170 -171 0
172 173 174 0
-172 -173 0
-172 -174 0
-173 -174 0
175 176 177 0
-175 -176 0
-175 -177 0
-176 -177 0
178 179 180 0
-178 -179 0
-178 -180 0
-179 -180 0
181 182 183 0
-181 -182 0
-181 -183 0
-182 -183 0
184 185 186 0
-184 -185 0
-184 -186 0
-185 -186 0
187 188 189 0
-187 -188 0
-187 -189 0
-188 -189 0
190 191 192 0
-190 -191 0
-190 -192 0
-191 -192 0
193 194 195 0
-193 -194 0
-193 -195 0
-194 -195 0
196 197 198 0
-196 -197 0
-196 -198 0
-197 -198 0
199 200 201 0
-199 -200 0
-199 -201 0
-200 -201 0
202 203 204 0
-202 -203 0
-202 -204 0
-203 -204 0
205 206 207 0
-205 -206 0
-205 -207 0
-206 -207 0
208 209 210 0
-208 -209 0
-208 -210 0
-209 -210 0
211 212 213 0
-211 -212 0
-211 -213 0
-212 -213 0
214 215 216 0
-214 -215 0
-214 -216 0
-215 -216 0
217 218 219 0
-217 -218 0
-217 -219 0
-218 -219 0
220 221 222 0
-220 -221 0
-220 -222 0
-221 -222 0
223 224 225 0
-223 -224 0
-223 -225 0
-224 -225 0
226 227 228 0
-226 -227 0
-226 -228 0
-227 -228 0
229 230 231 0
-229 -230 0
-229 -231 0
-230 -231 0
232 233 234 0
-232 -233 0
-232 -234 0
-233 -234 0
235 236 237 0
-235 -236 0
-235 -237 0
-236 -237 0
238 239 240 0
-238 -239 0
-238 -240 0
-239 -240 0
241 242 243 0
-241 -242 0
-241 -243 0
-242 -243 0
244 245 246 0
-244 -245 0
-244 -246 0
-245 -246 0
247 248 249 0
-247 -248 0
-247 -249 0
-248 -249 0
250 251 252 0
-250 -251 0
-250 -252 0
-251 -252 0
253 254 255 0
-253 -254 0
-253 -255 0
-254 -255 0
256 257 258 0
-256 -257 0
-256 -258 0
-257 -258 0
259 260 261 0
-259 -260 0
-259 -261 0
-260 -261 0
262 263 264 0
-262 -263 0
-262 -264 0
-263 -264 0
265 266 267 0
-265 -266 0
-265 -267 0
-266 -267 0
268 269 270 0
-268 -269 0
-268 -270 0
-269 -270 0
271 272 273 0
-271 -272 0
-271 -273 0
-272 -273 0
274 275 276 0
-274 -275 0
-274 -276 0
-275 -276 0
277 278 279 0
-277 -278 0
-277 -279 0
-278 -279 0
280 281 282 0
-280 -281 0
-280 -282 0
-281 -282 0
283 284 285 0
-283 -284 0
-283 -285 0
-284 -285 0
286 287 288 0
-286 -287 0
-286 -288 0
-287 -288 0
289 290 291 0
-289 -290 0
-289 -291 0
-290 -291 0
292 293 294 0
-292 -293 0
-292 -294 0
-293 -294 0
-1 -28 0
-2 -29 0
-3 -30 0
-1 -76 0
-2 -77 0
-3 -78 0
-1 -169 0
-2 -170 0
-3 -171 0
-1 -178 0
-2 -179 0
-3 -180 0
-1 -220 0
-2 -221 0
-3 -222 0
-4 -127 0
-5 -128 0
-6 -129 0
-4 -160 0
-5 -161 0
-6 -162 0
-4 -241 0
-5 -242 0
-6 -243 0
-4 -271 0
-5 -272 0
-6 -273 0
-4 -292 0
-5 -293 0
-6 -294 0
-7 -25 0
-8 -26 0
-9 -27 0
-7 -175 0
-8 -176 0
-9 -177 0
-7 -190 0
-8 -191 0
-9 -192 0
-7 -265 0
-8 -266 0
-9 -267 0
-7 -286 0
-8 -287 0
-9 -288 0
-10 -67 0
-11 -68 0
-12 -69 0
-10 -73 0
-11 -74 0
-12 -75 0
-10 -88 0
-11 -89 0
-12 -90 0
-10 -136 0
-11 -137 0
-12 -138 0
-10 -199 0
-11 -200 0
-12 -201 0
-13 -64 0
-14 -65 0
-15 -66 0
-13 -124 0
-14 -125 0
-15 -126 0
-13 -175 0
-14 -176 0
-15 -177 0
-13 -271 0
-14 -272 0
-15 -273 0
-13 -277 0
-14 -278 0
-15 -279 0
-16 -31 0
-17 -32 0
-18 -33 0
-16 -52 0
-17 -53 0
-18 -54 0
-16 -136 0
-17 -137 0
-18 -138 0
-16 -199 0
-17 -200 0
-18 -201 0
-16 -247 0
-17 -248 0
-18 -249 0
-19 -52 0
-20 -53 0
-21 -54 0
-19 -67 0
-20 -68 0
-21 -69 0
-19 -112 0
-20 -113 0
-21 -114 0
-19 -142 0
-20 -143 0
-21 -144 0
-19 -268 0
-20 -269 0
-21 -270 0
-22 -61 0
-23 -62 0
-24 -63 0
-22 -67 0
-23 -68 0
-24 -69 0
-22 -88 0
-23 -89 0
-24 -90 0
-22 -214 0
-23 -215 0
-24 -216 0
-22 -229 0
-23 -230 0
-24 -231 0
-25 -100 0
-26 -101 0
-27 -102 0
-25 -193 0
-26 -194 0
-27 -195 0
-25 -235 0
-26 -236 0
-27 -237 0
-25 -271 0
-26 -272 0
-27 -273 0
-28 -169 0
-29 -170 0
-30 -171 0
-28 -193 0
-29 -194 0
-30 -195 0
-28 -220 0
-29 -221 0
-30 -222 0
-28 -223 0
-29 -224 0
-30 -225 0
-31 -151 0
-32 -152 0
-33 -153 0
-31 -181 0
-32 -182 0
-33 -183 0
-31 -211 0
-32 -212 0
-33 -213 0
-31 -217 0
-32 -218 0
-33 -219 0
-34 -91 0
-35 -92 0
-36 -93 0
-34 -124 0
-35 -125 0
-36 -126 0
-34 -127 0
-35 -128 0
-36 -129 0
-34 -154 0
-35 -155 0
-36 -156 0
-34 -250 0
-35 -251 0
-36 -252 0
-37 -43 0
-38 -44 0
-39 -45 0
-37 -85 0
-38 -86 0
-39 -87 0
-37 -109 0
-38 -110 0
-39 -111 0
-37 -124 0
-38 -125 0
-39 -126 0
-37 -208 0
-38 -209 0
-39 -210 0
-40 -82 0
-41 -83 0
-42 -84 0
-40 -205 0
-41 -206 0
-42 -207 0
-40 -214 0
-41 -215 0
-42 -216 0
-40 -253 0
-41 -254 0
-42 -255 0
-40 -280 0
-41 -281 0
-42 -282 0
-43 -46 0
-44 -47 0
-45 -48 0
-43 -49 0
-44 -50 0
-45 -51 0
-43 -244 0
-44 -245 0
-45 -246 0
-43 -292 0
-44 -293 0
-45 -294 0
-46 -70 0
-47 -71 0
-48 -72 0
-46 -115 0
-47 -116 0
-48 -117 0
-46 -148 0
-47 -149 0
-48 -150 0
-46 -289 0
-47 -290 0
-48 -291 0
-49 -58 0
-50 -59 0
-51 -60 0
-49 -199 0
-50 -200 0
-51 -201 0
-49 -229 0
-50 -230 0
-51 -231 0
-49 -259 0
-50 -260 0
-51 -261 0
-52 -64 0
-53 -65 0
-54 -66 0
-52 -133 0
-53 -134 0
-54 -135 0
-52 -274 0
-53 -275 0
-54 -276 0
-55 -106 0
-56 -107 0
-57 -108 0
-55 -112 0
-56 -113 0
-57 -114 0
-55 -169 0
-56 -170 0
-57 -171 0
-55 -184 0
-56 -185 0
-57 -186 0
-55 -202 0
-56 -203 0
-57 -204 0
-58 -94 0
-59 -95 0
-60 -96 0
-58 -139 0
-59 -140 0
-60 -141 0
-58 -166 0
-59 -167 0
-60 -168 0
-58 -187 0
-59 -188 0
-60 -189 0
-61 -67 0
-62 -68 0
-63 -69 0
-61 -118 0
-62 -119 0
-63 -120 0
-61 -247 0
-62 -248 0
-63 -249 0
-61 -274 0
-62 -275 0
-63 -276 0
-64 -85 0
-65 -86 0
-66 -87 0
-64 -163 0
-65 -164 0
-66 -165 0
-64 -253 0
-65 -254 0
-66 -255 0
-67 -109 0
-68 -110 0
-69 -111 0
-70 -97 0
-71 -98 0
-72 -99 0
-70 -106 0
-71 -107 0
-72 -108 0
-70 -163 0
-71 -164 0
-72 -165 0
-70 -271 0
-71 -272 0
-72 -273 0
-73 -97 0
-74 -98 0
-75 -99 0
-73 -151 0
-74 -152 0
-75 -153 0
-73 -172 0
-74 -173 0
-75 -174 0
-73 -223 0
-74 -224 0
-75 -225 0
-76 -109 0
-77 -110 0
-78 -111 0
-76 -196 0
-77 -197 0
-78 -198 0
-76 -211 0
-77 -212 0
-78 -213 0
-76 -241 0
-77 -242 0
-78 -243 0
-79 -82 0
-80 -83 0
-81 -84 0
-79 -133 0
-80 -134 0
-81 -135 0
-79 -139 0
-80 -140 0
-81 -141 0
-79 -190 0
-80 -191 0
-81 -192 0
-79 -238 0
-80 -239 0
-81 -240 0
-82 -196 0
-83 -197 0
-84 -198 0
-82 -289 0
-83 -290 0
-84 -291 0
-82 -292 0
-83 -293 0
-84 -294 0
-85 -157 0
-86 -158 0
-87 -159 0
-85 -226 0
-86 -227 0
-87 -228 0
-85 -265 0
-86 -266 0
-87 -267 0
-88 -133 0
-89 -134 0
-90 -135 0
-88 -217 0
-89 -218 0
-90 -219 0
-88 -226 0
-89 -227 0
-90 -228 0
-91 -100 0
-92 -101 0
-93 -102 0
-91 -163 0
-92 -164 0
-93 -165 0
-91 -235 0
-92 -236 0
-93 -237 0
-91 -253 0
-92 -254 0
-93 -255 0
-94 -97 0
-95 -98 0
-96 -99 0
-94 -142 0
-95 -143 0
-96 -144 0
-94 -190 0
-95 -191 0
-96 -192 0
-94 -277 0
-95 -278 0
-96 -279 0
-97 -223 0
-98 -224 0
-99 -225 0
-97 -280 0
-98 -281 0
-99 -282 0
-100 -166 0
-101 -167 0
-102 -168 0
-100 -181 0
-101 -182 0
-102 -183 0
-100 -247 0
-101 -248 0
-102 -249 0
-103 -157 0
-104 -158 0
-105 -159 0
-103 -160 0
-104 -161 0
-105 -162 0
-103 -181 0
-104 -182 0
-105 -183 0
-103 -241 0
-104 -242 0
-105 -243 0
-103 -289 0
-104 -290 0
-105 -291 0
-106 -160 0
-107 -161 0
-108 -162 0
-106 -211 0
-107 -212 0
-108 -213 0
-106 -280 0
-107 -281 0
-108 -282 0
-109 -172 0
-110 -173 0
-111 -174 0
-109 -256 0
-110 -257 0
-111 -258 0
-112 -118 0
-113 -119 0
-114 -120 0
-112 -163 0
-113 -164 0
-114 -165 0
-112 -247 0
-113 -248 0
-114 -249 0
-115 -163 0
-116 -164 0
-117 -165 0
-115 -172 0
-116 -173 0
-117 -174 0
-115 -250 0
-116 -251 0
-117 -252 0
-115 -259 0
-116 -260 0
-117 -261 0
-118 -229 0
-119 -230 0
-120 -231 0
-118 -250 0
-119 -251 0
-120 -252 0
-118 -274 0
-119 -275 0
-120 -276 0
-121 -136 0
-122 -137 0
-123 -138 0
-121 -145 0
-122 -146 0
-123 -147 0
-121 -214 0
-122 -215 0
-123 -216 0
-121 -280 0
-122 -281 0
-123 -282 0
-121 -283 0
-122 -284 0
-123 -285 0
-124 -133 0
-125 -134 0
-126 -135 0
-124 -286 0
-125 -287 0
-126 -288 0
-127 -196 0
-128 -197 0
-129 -198 0
-127 -208 0
-128 -209 0
-129 -210 0
-127 -259 0
-128 -260 0
-129 -261 0
-130 -139 0
-131 -140 0
-132 -141 0
-130 -148 0
-131 -149 0
-132 -150 0
-130 -256 0
-131 -257 0
-132 -258 0
-130 -262 0
-131 -263 0
-132 -264 0
-130 -268 0
-131 -269 0
-132 -270 0
-133 -178 0
-134 -179 0
-135 -180 0
-136 -157 0
-137 -158 0
-138 -159 0
-136 -256 0
-137 -257 0
-138 -258 0
-139 -142 0
-140 -143 0
-141 -144 0
-139 -223 0
-140 -224 0
-141 -225 0
-142 -187 0
-143 -188 0
-144 -189 0
-142 -193 0
-143 -194 0
-144 -195 0
-145 -172 0
-146 -173 0
-147 -174 0
-145 -214 0
-146 -215 0
-147 -216 0
-145 -250 0
-146 -251 0
-147 -252 0
-145 -283 0
-146 -284 0
-147 -285 0
-148 -259 0
-149 -260 0
-150 -261 0
-148 -283 0
-149 -284 0
-150 -285 0
-148 -289 0
-149 -290 0
-150 -291 0
-151 -178 0
-152 -179 0
-153 -180 0
-151 -253 0
-152 -254 0
-153 -255 0
-151 -256 0
-152 -257 0
-153 -258 0
-154 -157 0
-155 -158 0
-156 -159 0
-154 -181 0
-155 -182 0
-156 -183 0
-154 -196 0
-155 -197 0
-156 -198 0
-154 -292 0
-155 -293 0
-156 -294 0
-157 -211 0
-158 -212 0
-159 -213 0
-160 -202 0
-161 -203 0
-162 -204 0
-160 -244 0
-161 -245 0
-162 -246 0
-166 -184 0
-167 -185 0
-168 -186 0
-166 -235 0
-167 -236 0
-168 -237 0
-166 -277 0
-167 -278 0
-168 -279 0
-169 -178 0
-170 -179 0
-171 -180 0
-169 -229 0
-170 -230 0
-171 -231 0
-172 -208 0
-173 -209 0
-174 -210 0
-175 -190 0
-176 -191 0
-177 -192 0
-175 -208 0
-176 -209 0
-177 -210 0
-175 -274 0
-176 -275 0
-177 -276 0
-178 -184 0
-179 -185 0
-180 -186 0
-181 -235 0
-182 -236 0
-183 -237 0
-184 -205 0
-185 -206 0
-186 -207 0
-184 -232 0
-185 -233 0
-186 -234 0
-187 -226 0
-188 -227 0
-189 -228 0
-187 -271 0
-188 -272 0
-189 -273 0
-187 -286 0
-188 -287 0
-189 -288 0
-190 -220 0
-191 -221 0
-192 -222 0
-193 -262 0
-194 -263 0
-195 -264 0
-193 -277 0
-194 -278 0
-195 -279 0
-196 -262 0
-197 -263 0
-198 -264 0
-199 -268 0
-200 -269 0
-201 -270 0
-199 -280 0
-200 -281 0
-201 -282 0
-202 -211 0
-203 -212 0
-204 -213 0
-202 -244 0
-203 -245 0
-204 -246 0
-202 -265 0
-203 -266 0
-204 -267 0
-205 -223 0
-206 -224 0
-207 -225 0
-205 -247 0
-206 -248 0
-207 -249 0
-205 -265 0
-206 -266 0
-207 -267 0
-208 -262 0
-209 -263 0
-210 -264 0
-214 -268 0
-215 -269 0
-216 -270 0
-217 -232 0
-218 -233 0
-219 -234 0
-217 -262 0
-218 -263 0
-219 -264 0
-217 -286 0
-218 -287 0
-219 -288 0
-220 -274 0
-221 -275 0
-222 -276 0
-220 -283 0
-221 -284 0
-222 -285 0
-226 -238 0
-227 -239 0
-228 -240 0
-226 -241 0
-227 -242 0
-228 -243 0
-229 -268 0
-230 -269 0
-231 -270 0
-232 -241 0
-233 -242 0
-234 -243 0
-232 -244 0
-233 -245 0
-234 -246 0
-232 -259 0
-233 -260 0
-234 -261 0
-235 -286 0
-236 -287 0
-237 -288 0
-238 -256 0
-239 -257 0
-240 -258 0
-238 -265 0
-239 -266 0
-240 -267 0
-238 -289 0
-239 -290 0
-240 -291 0
-244 -277 0
-245 -278 0
-246 -279 0
-250 -292 0
-251 -293 0
-252 -294 0
-253 -283 0
-254 -284 0
-255 -285 0
